n=30;
demand=2;
horizon=30;
est=[13,20,7,14,10,27,4,17,0,0,8,21,12,16,22,28,24,8,19,28,11,21,9,24,2,11,26,29,1,10];
processing_time=[12,9,23,2,15,1,23,9,1,18,9,1,7,4,4,2,6,21,7,1,7,5,14,3,22,2,3,1,8,10];
lct=[27,30,30,21,28,30,29,27,25,29,29,28,26,20,29,30,30,30,26,30,23,28,27,28,25,23,29,30,11,25];
